(set-logic QF_S)
(set-option :produce-models true)

(declare-fun s873 () String)
(declare-fun s394 () String)
(declare-fun s871 () String)
(declare-fun s368 () String)
(declare-fun s379 () String)
(declare-fun s389 () String)
(declare-fun s419 () String)
(declare-fun temp2_368_379 () String)
(declare-fun temp1_368_384 () String)
(declare-fun temp2_368_384 () String)
(declare-fun temp1_368_389 () String)
(declare-fun temp2_368_389 () String)
(declare-fun temp1_368_394 () String)
(declare-fun temp2_368_394 () String)
(declare-fun temp1_368_379 () String)
(declare-fun s384 () String)

(assert (= (str.++ temp1_368_394 temp2_368_394) s368) )
(assert (= (str.len temp1_368_389) (str.len s389) ) )
(assert (= s419 "..." ))
(assert (not (= s368 s871 )))
(assert (not (= s394 temp2_368_394) ) )
(assert (= (str.++ temp1_368_379 temp2_368_379) s368) )
(assert (= (str.len temp2_368_384) (str.len s384) ) )
(assert (not (= s384 temp2_368_384) ) )
(assert (= s871 "..." ))
(assert (= (str.++ temp1_368_384 temp2_368_384) s368) )
(assert (= s368 s873 ))
(assert (= (str.len temp1_368_379) (str.len s379) ) )
(assert (= (str.++ temp1_368_389 temp2_368_389) s368) )
(assert (not (= s368 s873 )))
(assert (not (= s379 temp1_368_379) ) )
(assert (not (= s389 temp1_368_389) ) )
(assert (= (str.len temp2_368_394) (str.len s394) ) )
(assert (not (= s368 s419 )))


(check-sat)
(get-model)
